24749,
23938,
23629,
22987,
22987,
22859,
22312,
22312,
21601,
21601,
21601,
21318,
21253,
20863,
20316,
20218,
19890,
19740,
19724,
19656,
19479,
19479,
19479,
19479,
19479,
19479,
19479,
19479,
19479,
19479,
19479,
19479,
19479,
19479,
19479,
19479,
19479,
19479,
19479,
19460,
19460,
19460,
19454,
19454,
19454,
19066,
19066,
18767,
18767,
18767,
18767,
18767,
18767,
18767,
18763,
18763,
18763,
18763,
18763,
18568,
18568,
18568,
18130,
18130,
18130,
18130,
18130,
17991,
17991,
17991,
17991,
17991,
17950,
17950,
17950,
17950,
17950,
17944,
17944,
17944,
17944,
17944,
17944,
17944,
17944,
17944,
17944,
17944,
17944,
17944,
17944,
17944,
17944,
17944,
17944,
17771,
17771,
17771,
17771,
17771,
17771,
17771,
17771,
17771,
17730,
17730,
17730,
17730,
17479,
17479,
17479,
17479,
17479,
17479,
17479,
17479,
17479,
17479,
17479,
17353,
17353,
17353,
17353,
17337,
17337,
17337,
17319,
17319,
17319,
17319,
17319,
17319,
17319,
17319,
17319,
17319,
17319,
17319,
17319,
17319,
17319,
17309,
17309,
17309,
17309,
17309,
16769,
16769,
16769,
16769,
16769,
16769,
16769,
16769,
16769,
16769,
16769,
16769,
16769,
16769,
16769,
16769,
16769,
16769,
16769,
16769,
16769,
16769,
16769,
16769,
16769,
16769,
16769,
16769,
16769,
16769,
16769,
16326,
16326,
16311,
16311,
16311,
16311,
16311,
16311,
16311,
16311,
16311,
16311,
16311,
16293,
16293,
16293,
16293,
16293,
16293,
15978,
15978,
15978,
15978,
15978,
15978,
15963,
15963,
15935,
15920,
15920,
15920,
15920,
15920,
15920,
15920,
15906,
15906,
15906,
15906,
15906,
15906,
15906,
15858,
15858,
15858,
15858,
15858,
15858,
15717,
15717,
15717,
15717,
15717,
15717,
15717,
15717,
15717,
15717,
15717,
15717,
15717,
15717,
15717,
15717,
15717,
15717,
15717,
15384,
15384,
15384,
15384,
15384,
15384,
15226,
15226,
15226,
15226,
15226,
15226,
15226,
15226,
15226,
15226,
15226,
15226,
15226,
15226,
15226,
15226,
15226,
15226,
15226,
15226,
15226,
15226,
15226,
15226,
15226,
14958,
14958,
14958,
14958,
14958,
14958,
14956,
14956,
14956,
14956,
14956,
14956,
14956,
14956,
14956,
14312,
14312,
14312,
14312,
14312,
14312,
14312,
14312,
14312,
14312,
14312,
14312,
14312,
14312,
14312,
14312,
14312,
14312,
14312,
14218,
14218,
14218,
14218,
14218,
14218,
14218,
14218,
14218,
14218,
14218,
14218,
14218,
14218,
14218,
14218,
14200,
14200,
14200,
14200,
14200,
14200,
14200,
14200,
14200,
14200,
14200,
14200,
14200,
14200,
14200,
14200,
14200,
14091,
14091,
14091,
14091,
14091,
14091,
14091,
14083,
14083,
14083,
14083,
14083,
14083,
14083,
14083,
14083,
14083,
14083,
14083,
14083,
14083,
14083,
14083,
14083,
14083,
14083,
14083,
14083,
14083,
14083,
14083,
14083,
14083,
14083,
14083,
14083,
14083,
14083,
14083,
14083,
14083,
14083,
14083,
14083,
14083,
14083,
14083,
14083,
14083,
14083,
14083,
14083,
14083,
14083,
14083,
14083,
14083,
14083,
14083,
14083,
14083,
14083,
14083,
14083,
14083,
14083,
14083,
14083,
14083,
14083,
13863,
13863,
13863,
13863,
13863,
13863,
13863,
13863,
13863,
13863,
13863,
13863,
13863,
13863,
13863,
13863,
13863,
13863,
13863,
13863,
13863,
13863,
13863,
13863,
13863,
13863,
13863,
13863,
13863,
13863,
13863,
13863,
13863,
13863,
13863,
13863,
13863,
13863,
13863,
13863,
13863,
13863,
13863,
13863,
13863,
13863,
13863,
13863,
13863,
13863,
13863,
13863,
13748,
13748,
13748,
13748,
13748,
13748,
13748,
13748,
13748,
13748,
13748,
13748,
13748,
13748,
13748,
13748,
13748,
13748,
13748,
13748,
13748,
13748,
13748,
13748,
13748,
13748,
13748,
13748,
13748,
13748,
13748,
13748,
13748,
13748,
13748,
13748,
13748,
13748,
13748,
13748,
13748,
13726,
13726,
13726,
13726,
13726,
13726,
13726,
13726,
13726,
13726,
13726,
13726,
13726,
13726,
13726,
13726,
13726,
13726,
13726,
13726,
13726,
13726,
13726,
13726,
13726,
13726,
13726,
13726,
13726,
13726,
13726,
13726,
13726,
13592,
13592,
13592,
13592,
13592,
13592,
13471,
13471,
13471,
13369,
13369,
13369,
13369,
13369,
13369,
13369,
13369,
13369,
13369,
13369,
13369,
13369,
13369,
13369,
13369,
13369,
13369,
13369,
13369,
13369,
13369,
13369,
13369,
13369,
13369,
13369,
13369,
13369,
13369,
13369,
13369,
13369,
13323,
13323,
13323,
13323,
13323,
13323,
13323,
13323,
13323,
13323,
13323,
13323,
13323,
13323,
13323,
13323,
13323,
13323,
13323,
13323,
13323,
13323,
13323,
13323,
13323,
13323,
13323,
13323,
13323,
13323,
13323,
13323,
13323,
13323,
13323,
13323,
13323,
13323,
13323,
13323,
13323,
13323,
13323,
13323,
13323,
13323,
13323,
13323,
13323,
13323,
13323,
13323,
13323,
13323,
13323,
13323,
13323,
13323,
13323,
13280,
13280,
13280,
13280,
13280,
13280,
13280,
13280,
13280,
13280,
13280,
13280,
13280,
13280,
13280,
13280,
13280,
13280,
13280,
13179,
13179,
13179,
13179,
13179,
13179,
13179,
13179,
13179,
13179,
13179,
13179,
13179,
13179,
13179,
13179,
13179,
13179,
13179,
13179,
13179,
13179,
13179,
13179,
13179,
13078,
13078,
13078,
13078,
13078,
13078,
13078,
13078,
13078,
13078,
13078,
13078,
13078,
13078,
13078,
13078,
12982,
12982,
12966,
12966,
12966,
12966,
12966,
12966,
12966,
12966,
12966,
12966,
12966,
12966,
12966,
12966,
12966,
12966,
12966,
12966,
12966,
12966,
12966,
12966,
12966,
12966,
12966,
12966,
12966,
12966,
12966,
12966,
12966,
12966,
12966,
12966,
12966,
12966,
12966,
12966,
12966,
12966,
12966,
12966,
12966,
12966,
12966,
12966,
12966,
12966,
12966,
12966,
12966,
12888,
12888,
12888,
12888,
12888,
12888,
12888,
12888,
12888,
12888,
12888,
12888,
12888,
12888,
12888,
12888,
12888,
12888,
12888,
12888,
12888,
12888,
12888,
12888,
12888,
12888,
12888,
12888,
12888,
12888,
12888,
12888,
12888,
12888,
12888,
12888,
12888,
12888,
12821,
12821,
12821,
12821,
12821,
12821,
12821,
12821,
12821,
12821,
12821,
12821,
12821,
12821,
12821,
12821,
12821,
12821,
12821,
12821,
12821,
12821,
12821,
12821,
12821,
12821,
12821,
12821,
12821,
12821,
12821,
12481,
12481,
12481,
12481,
12481,
12481,
12481,
12481,
12481,
12481,
12481,
12481,
12432,
12432,
12432,
12432,
12432,
12432,
12432,
12432,
12432,
12432,
12432,
12432,
12432,
12432,
12432,
12432,
12432,
12432,
12432,
12432,
12432,
12432,
12432,
12432,
12432,
12432,
12432,
12432,
12432,
12432,
12432,
12432,
12432,
12432,
12432,
12432,
12432,
12432,
12432,
12432,
12432,
12432,
12432,
12432,
12432,
12432,
12432,
12432,
12432,
12432,
12432,
12432,
12432,
12432,
12432,
12424,
12424,
12424,
12424,
12424,
12424,
12424,
12424,
12424,
12424,
12424,
12424,
12424,
12424,
12424,
12424,
12424,
12424,
12424,
12424,
12424,
12424,
12424,
12424,
12424,
12424,
12424,
12424,
12424,
12424,
12424,
12424,
12424,
12424,
12424,
12424,
12424,
12424,
12424,
12424,
12424,
12424,
12424,
12424,
12424,
12424,
12424,
12411,
12411,
12411,
12411,
12411,
12411,
12411,
12411,
12411,
12411,
12411,
12411,
12411,
12411,
12411,
12411,
12411,
12411,
12411,
12404,
12404,
12404,
12404,
12404,
12404,
12404,
12404,
12404,
12404,
12404,
12404,
12404,
12404,
12404,
12260,
12260,
12260,
12260,
12260,
12260,
12260,
12260,
12260,
12260,
12260,
12260,
12260,
12260,
12260,
12260,
12260,
12260,
12260,
12260,
12260,
12260,
12260,
12260,
12260,
12260,
12260,
12260,
12260,
12260,
12260,
12260,
12260,
12260,
12260,
12260,
12260,
12260,
12260,
12135,
12135,
12135,
12135,
12135,
12135,
12135,
12135,
12135,
12135,
12135,
12135,
12135,
12135,
12135,
12135,
12135,
12135,
12135,
12135,
12135,
12135,
12135,
12135,
12135,
12135,
12135,
12135,
12135,
12135,
12135,
12135,
12135,
12135,
12130,
12130,
12130,
12130,
12130,
12130,
12130,
12130,
12130,
12130,
12130,
12130,
12024,
12024,
12024,
12024,
12024,
12024,
12024,
12024,
12024,
12024,
12024,
12024,
12024,
12024,
12024,
12024,
12024,
12024,
12024,
12024,
12024,
12024,
12024,
12024,
12024,
12024,
12024,
12024,
12024,
12024,
12024,
12024,
12024,
12024,
12024,
12024,
12024,
12024,
12024,
12024,
12024,
12024,
12024,
12024,
12024,
12024,
12024,
12024,
12024,
12024,
12019,
12019,
12019,
12019,
12019,
12019,
12019,
12019,
12019,
12019,
12019,
12019,
12019,
12019,
12019,
12019,
12019,
12019,
12019,
11999,
11999,
11999,
11999,
11999,
11999,
11999,
11999,
11999,
11999,
11861,
11861,
11861,
11861,
11861,
11861,
11861,
11861,
11861,
11861,
11861,
11861,
11861,
11861,
11861,
11861,
11861,
11861,
11861,
11861,
11861,
11861,
11861,
11861,
11861,
11861,
11861,
11861,
11861,
11861,
11861,
11861,
11861,
11861,
11861,
11861,
11861,
11782,
11782,
11782,
11782,
11782,
11782,
11782,
11782,
11782,
11782,
11782,
11782,
11782,
11782,
11782,
11782,
11782,
11782,
11782,
11782,
11782,
11782,
11782,
11782,
11782,
11782,
11782,
11782,
11782,
11782,
11782,
11782,
11782,
11782,
11782,
11782,
11782,
11782,
11782,
11782,
11782,
11782,
11782,
11782,
11782,
11782,
11782,
11782,
11777,
11777,
11777,
11777,
11777,
11777,
11777,
11777,
11777,
11777,
11672,
11672,
11672,
11672,
11672,
11672,
11672,
11672,
11672,
11672,
11672,
11672,
11672,
11672,
11672,
11672,
11672,
11672,
11672,
11672,
11672,
11672,
11672,
11672,
11672,
11672,
11672,
11672,
11672,
11672,
11672,
11672,
11672,
11672,
11672,
11672,
11672,
11672,
11672,
11672,
11672,
11598,
11598,
11598,
11598,
11598,
11598,
11598,
11598,
11598,
11598,
11598,
11598,
11598,
11598,
11598,
11598,
11598,
11598,
11598,
11598,
11598,
11598,
11598,
11598,
11598,
11598,
11598,
11598,
11598,
11598,
11598,
11598,
11598,
11598,
11598,
11598,
11598,
11598,
11598,
11598,
11598,
11598,
11598,
11598,
11598,
11598,
11598,
11598,
11598,
11598,
11256,
11256,
11256,
11256,
11256,
11256,
11256,
11256,
11256,
11256,
11256,
11256,
11256,
11256,
11256,
11256,
11256,
11256,
11256,
11256,
11256,
11256,
11256,
11256,
11256,
11256,
11256,
11256,
11256,
11256,
11256,
11256,
11256,
11256,
11256,
11256,
11256,
11256,
11256,
11256,
11256,
11256,
11256,
11256,
11256,
11256,
11256,
11256,
11256,
11256,
11256,
11256,
11256,
11256,
11256,
11256,
11256,
11256,
11256,
11256,
11256,
11256,
11256,
11256,
11256,
11256,
11256,
11256,
11256,
11256,
11256,
11256,
11256,
11256,
11256,
11256,
11256,
11256,
11256,
11256,
11256,
11256,
11254,
11254,
11254,
11254,
11254,
11254,
11254,
11254,
11254,
11254,
11254,
11254,
11254,
11254,
11254,
11254,
11254,
11254,
11254,
11237,
11237,
11237,
11237,
11237,
11237,
11237,
11237,
11237,
11237,
11237,
11237,
11237,
11237,
11237,
11237,
11237,
11237,
11237,
11237,
11237,
11237,
11237,
11237,
11237,
11237,
11237,
11237,
11237,
11237,
11237,
11237,
11237,
11237,
11237,
11237,
11237,
11237,
11237,
11237,
11237,
11237,
11237,
11237,
11237,
11237,
11237,
11237,
11237,
11237,
11237,
11237,
11237,
11237,
11237,
11237,
11237,
11237,
11237,
11237,
11237,
11237,
11237,
11237,
11237,
11237,
11237,
11237,
11237,
11237,
11237,
11237,
11237,
11237,
11237,
11237,
11237,
11237,
11237,
11237,
11237,
1,
